p cnf 91 127
-1 -2 -3 91 0 
-4 -2 -3 91 0 
-3 91 0 
-5 17 21 -3 91 0 
-6 91 0 
-7 91 0 
-8 9 10 12 14 15 16 18 19 20 23 24 30 33 48 49 50 51 65 73 76 77 78 80 81 82 91 0 
-9 8 10 12 14 15 16 18 19 20 23 24 30 33 48 49 50 51 65 73 76 77 78 80 81 82 91 0 
-10 8 9 12 14 15 16 18 19 20 23 24 30 33 48 49 50 51 65 73 76 77 78 80 81 82 91 0 
-11 91 0 
-12 8 9 10 14 15 16 18 19 20 23 24 30 33 48 49 50 51 65 73 76 77 78 80 81 82 91 0 
-13 91 0 
-14 8 9 10 12 15 16 18 19 20 23 24 30 33 48 49 50 51 65 73 76 77 78 80 81 82 91 0 
-15 8 9 10 12 14 16 18 19 20 23 24 30 33 48 49 50 51 65 73 76 77 78 80 81 82 91 0 
-16 8 9 10 12 14 15 18 19 20 23 24 30 33 48 49 50 51 65 73 76 77 78 80 81 82 91 0 
-17 5 21 91 0 
-18 8 9 10 12 14 15 16 19 20 23 24 30 33 48 49 50 51 65 73 76 77 78 80 81 82 91 0 
-19 8 9 10 12 14 15 16 18 20 23 24 30 33 48 49 50 51 65 73 76 77 78 80 81 82 91 0 
-20 8 9 10 12 14 15 16 18 19 23 24 30 33 48 49 50 51 65 73 76 77 78 80 81 82 91 0 
-21 5 17 -9 8 10 12 14 15 16 18 19 20 23 24 30 33 48 49 50 51 65 73 76 77 78 80 81 82 -1 -3 91 0 
-22 59 91 0 
-23 8 9 10 12 14 15 16 18 19 20 24 30 33 48 49 50 51 65 73 76 77 78 80 81 82 91 0 
-24 8 9 10 12 14 15 16 18 19 20 23 30 33 48 49 50 51 65 73 76 77 78 80 81 82 -25 91 0 
-26 91 0 
-27 28 29 31 32 66 67 91 0 
-28 27 29 31 32 66 67 91 0 
-29 27 28 31 32 66 67 91 0 
-30 8 9 10 12 14 15 16 18 19 20 23 24 33 48 49 50 51 65 73 76 77 78 80 81 82 91 0 
-31 27 28 29 32 66 67 91 0 
-32 27 28 29 31 66 67 91 0 
-33 8 9 10 12 14 15 16 18 19 20 23 24 30 48 49 50 51 65 73 76 77 78 80 81 82 91 0 
-34 91 0 
-1 91 0 
-4 91 0 
-35 -27 28 29 31 32 66 67 -36 42 44 45 72 91 0 
-28 27 29 31 32 66 67 -37 91 0 
-38 91 0 
-39 69 -3 91 0 
-39 69 91 0 
-40 -3 91 0 
-41 -2 91 0 
-25 -2 91 0 
-42 36 44 45 72 91 0 
-2 91 0 
-43 -44 36 42 45 72 91 0 
-41 -43 -45 36 42 44 72 91 0 
-5 17 21 -2 91 0 
-46 -2 91 0 
-26 -2 91 0 
-1 -2 91 0 
-1 -3 91 0 
-4 -3 91 0 
-47 60 91 0 
-48 8 9 10 12 14 15 16 18 19 20 23 24 30 33 49 50 51 65 73 76 77 78 80 81 82 91 0 
-49 8 9 10 12 14 15 16 18 19 20 23 24 30 33 48 50 51 65 73 76 77 78 80 81 82 91 0 
-50 8 9 10 12 14 15 16 18 19 20 23 24 30 33 48 49 51 65 73 76 77 78 80 81 82 91 0 
-51 8 9 10 12 14 15 16 18 19 20 23 24 30 33 48 49 50 65 73 76 77 78 80 81 82 91 0 
-52 -3 91 0 
-53 91 0 
-54 91 0 
-55 -3 91 0 
-21 5 17 -42 36 44 45 72 91 0 
-56 -1 91 0 
-57 91 0 
-1 -58 87 -59 22 -3 91 0 
-52 91 0 
-60 47 91 0 
-56 91 0 
-37 91 0 
-61 91 0 
-62 91 0 
-63 91 0 
-59 22 -3 91 0 
-64 -3 91 0 
-65 8 9 10 12 14 15 16 18 19 20 23 24 30 33 48 49 50 51 73 76 77 78 80 81 82 91 0 
-66 27 28 29 31 32 67 91 0 
-67 27 28 29 31 32 66 91 0 
-5 17 21 91 0 
-41 -3 91 0 
-25 -3 91 0 
-68 -3 91 0 
-69 39 -3 91 0 
-41 -69 39 -70 91 0 
-41 -58 87 -59 22 91 0 
-42 36 44 45 72 91 0 
-71 -3 91 0 
-41 -72 36 42 44 45 91 0 
-43 -44 36 42 45 72 91 0 
-41 -43 -45 36 42 44 72 91 0 
-46 -3 91 0 
-26 -3 91 0 
-6 91 0 
-10 8 9 12 14 15 16 18 19 20 23 24 30 33 48 49 50 51 65 73 76 77 78 80 81 82 -3 91 0 
-16 8 9 10 12 14 15 18 19 20 23 24 30 33 48 49 50 51 65 73 76 77 78 80 81 82 -3 91 0 
-11 -3 91 0 
-13 -3 91 0 
-73 8 9 10 12 14 15 16 18 19 20 23 24 30 33 48 49 50 51 65 76 77 78 80 81 82 91 0 
-74 79 91 0 
-75 91 0 
-76 8 9 10 12 14 15 16 18 19 20 23 24 30 33 48 49 50 51 65 73 77 78 80 81 82 91 0 
-77 8 9 10 12 14 15 16 18 19 20 23 24 30 33 48 49 50 51 65 73 76 78 80 81 82 91 0 
-78 8 9 10 12 14 15 16 18 19 20 23 24 30 33 48 49 50 51 65 73 76 77 80 81 82 91 0 
-79 74 91 0 
-80 8 9 10 12 14 15 16 18 19 20 23 24 30 33 48 49 50 51 65 73 76 77 78 81 82 91 0 
-81 8 9 10 12 14 15 16 18 19 20 23 24 30 33 48 49 50 51 65 73 76 77 78 80 82 91 0 
-82 8 9 10 12 14 15 16 18 19 20 23 24 30 33 48 49 50 51 65 73 76 77 78 80 81 91 0 
-41 91 0 
-83 91 0 
-84 -3 91 0 
-68 -2 91 0 
-69 39 -2 91 0 
-41 -69 39 -70 91 0 
-41 -72 36 42 44 45 91 0 
-63 -3 91 0 
-4 -2 91 0 
-1 -58 87 -59 22 91 0 
-85 -3 91 0 
-86 91 0 
-87 58 -59 22 91 0 
-56 -3 91 0 
-88 91 0 
-37 -2 -3 91 0 
-55 -63 -3 91 0 
-71 -2 -59 22 91 0 
-89 -58 87 -59 22 91 0 
-55 -2 -3 91 0 
-90 91 0 
